00:00.0 clingo version 5.5.1
00:00.0 Reading from ...ols/../encodings/CTW_nat_optimal_V2.lp ...
29:59.955 UNKNOWN
30:00.20 
30:00.20 TIME LIMIT   : 1
30:00.21 Models       : 0+
30:00.21 Calls        : 1
30:00.21 Time         : 1800.091s (Solving: 0.00s 1st Model: 0.00s Unsat: 0.00s)
30:00.22 CPU Time     : 117.085s
